units           metal
boundary        p p p 
atom_style      full

neigh_modify    every 10 delay 0 check no

variable    mW  equal 183.84
variable    mMo equal 95.94
variable    mSe equal 78.96

read_data   TMD.bilayer.data
mass        1 ${mMo}
mass        2 ${mSe}
mass        3 ${mSe}
mass        4 ${mW}
mass        5 ${mSe}
mass        6 ${mSe}

pair_style  hybrid/overlay nep nep lj/cut 0.1
pair_coeff * * nep 1 nep.MoWSe Mo Se Se NULL NULL NULL
pair_coeff * * nep 2 nep.MoWSe NULL NULL NULL W Se Se
pair_coeff * * lj/cut 1 1


compute    1 all pe/atom
compute    pe all reduce sum c_1
dump 1 all custom 1 out.dump id type x y z fx fy fz
# run 1
velocity        all create 300 23456789
fix             1 all npt temp 300 300 0.1 iso 0 0 1
fix             2 all momentum 1 linear 1 1 1 
timestep        0.001
thermo_style    custom step pe ke etotal temp press vol pxx pyy pzz pxy pxz pyz
thermo          10
dump 20 all custom 20 out.dump id type x y z fx fy fz
run             1000

