 C 
 1.0000000000000000
     3.5737100000000002    0.0000000000000000    0.0000000000000000
     0.0000000000000000    3.5737100000000002    0.0000000000000000
     0.0000000000000000    0.0000000000000000    3.5737100000000002
 C  
   8
Cartesian
  1.0493072138557831  2.7451174213012250  0.9578228148344955
 -0.0368202231026463  0.1592747192543436  1.6602775332189585
  0.9013551725689876  1.0158889683792602  2.6534775503833368
  0.0176989669304069  1.8440288676894672 -0.0530304927930587
  2.5960942379585554  2.8590053306414078  2.6059287787563532
  1.8322408074492522  0.0008102593476620 -0.0103075075437047
  2.7817588137340410  0.9812290473242173  0.7664748648328916
  1.8387399815792014  1.7607397922563084  1.7543386630669870
